p cnf 177 475
-1 98 0
-2 99 0
-3 105 0
-4 95 0
-4 108 0
-4 99 0
-4 96 0
-5 102 0
-5 104 0
-5 97 0
-5 98 0
-5 106 0
-6 96 0
-7 101 0
-8 97 0
-9 102 0
-10 103 0
-11 104 0
-12 100 0
-13 108 0
-14 95 0
-14 103 0
-14 100 0
-14 96 0
-14 107 0
-15 95 0
-16 103 0
-16 105 0
-16 100 0
-16 101 0
-16 107 0
-17 106 0
-18 107 0
-19 113 0
-20 114 0
-21 122 0
-22 109 0
-22 126 0
-22 114 0
-22 111 0
-23 124 0
-23 114 0
-23 126 0
-23 111 0
-24 124 0
-24 118 0
-24 112 0
-24 111 0
-24 121 0
-25 117 0
-26 118 0
-26 123 0
-26 112 0
-26 113 0
-26 121 0
-27 110 0
-28 111 0
-29 116 0
-30 112 0
-31 117 0
-31 123 0
-31 112 0
-31 113 0
-31 121 0
-32 118 0
-33 124 0
-34 120 0
-35 119 0
-36 109 0
-36 119 0
-36 115 0
-36 111 0
-36 125 0
-37 123 0
-38 115 0
-39 126 0
-40 109 0
-40 120 0
-40 115 0
-40 111 0
-40 125 0
-41 109 0
-42 120 0
-42 122 0
-42 115 0
-42 116 0
-42 125 0
-43 121 0
-44 125 0
-45 110 0
-45 122 0
-45 115 0
-45 116 0
-45 125 0
-46 131 0
-47 132 0
-48 127 0
-48 145 0
-48 132 0
-48 129 0
-49 143 0
-49 132 0
-49 145 0
-49 129 0
-50 143 0
-50 136 0
-50 130 0
-50 129 0
-50 141 0
-51 143 0
-51 138 0
-51 130 0
-51 129 0
-51 142 0
-52 129 0
-53 130 0
-54 135 0
-54 139 0
-54 130 0
-54 131 0
-54 141 0
-55 136 0
-56 143 0
-57 138 0
-58 137 0
-59 127 0
-59 138 0
-59 133 0
-59 129 0
-59 142 0
-60 139 0
-61 133 0
-62 144 0
-63 145 0
-64 127 0
-64 137 0
-64 133 0
-64 129 0
-64 142 0
-65 127 0
-66 141 0
-67 143 0
-67 144 0
-67 130 0
-67 129 0
-67 141 0
-68 142 0
-69 128 0
-69 140 0
-69 133 0
-69 134 0
-69 142 0
-70 149 0
-71 146 0
-71 161 0
-71 150 0
-71 147 0
-72 158 0
-72 150 0
-72 161 0
-72 147 0
-73 158 0
-73 153 0
-73 148 0
-73 147 0
-73 156 0
-74 146 0
-74 160 0
-74 152 0
-74 147 0
-74 156 0
-75 151 0
-76 158 0
-76 154 0
-76 148 0
-76 147 0
-76 159 0
-77 151 0
-77 157 0
-77 148 0
-77 149 0
-77 159 0
-78 147 0
-79 148 0
-80 158 0
-80 151 0
-80 148 0
-80 147 0
-80 159 0
-81 158 0
-82 154 0
-83 157 0
-84 152 0
-85 160 0
-86 146 0
-86 155 0
-86 152 0
-86 147 0
-86 159 0
-87 146 0
-88 156 0
-89 159 0
-90 162 0
-90 175 0
-90 167 0
-90 163 0
-90 170 0
-91 166 0
-92 172 0
-92 168 0
-92 164 0
-92 163 0
-92 171 0
-93 173 0
-93 169 0
-93 164 0
-93 165 0
-93 171 0
-94 174 0
-109 15 0
-110 16 0
-111 6 0
-112 8 0
-113 1 0
-114 2 0
-115 12 0
-116 7 0
-117 5 0
-118 9 0
-119 14 0
-120 10 0
-121 17 0
-122 3 0
-123 11 0
-124 4 0
-125 18 0
-126 13 0
-4 -14 0
-4 -15 0
-5 -9 0
-10 -16 0
-10 -14 0
-14 -16 0
-127 41 23 0
-128 27 42 0
-129 28 0
-130 30 0
-131 19 0
-132 20 0
-133 38 0
-134 29 0
-135 25 26 0
-136 32 31 0
-137 34 36 45 0
-138 35 40 0
-139 37 0
-140 21 0
-141 43 0
-142 44 0
-143 33 22 0
-144 24 0
-145 39 0
-22 -24 0
-22 -23 0
-22 -40 0
-22 -36 0
-22 -41 0
-22 -33 0
-23 -40 0
-23 -36 0
-23 -24 0
-23 -33 0
-23 -35 0
-23 -41 0
-24 -40 0
-24 -26 0
-24 -32 0
-24 -31 0
-24 -25 0
-24 -35 0
-24 -36 0
-24 -41 0
-25 -31 0
-25 -26 0
-25 -32 0
-26 -32 0
-26 -31 0
-27 -45 0
-27 -40 0
-27 -36 0
-27 -42 0
-27 -35 0
-27 -34 0
-31 -32 0
-33 -41 0
-33 -40 0
-33 -36 0
-33 -35 0
-34 -42 0
-34 -40 0
-34 -35 0
-34 -45 0
-34 -36 0
-35 -45 0
-35 -42 0
-35 -36 0
-35 -40 0
-36 -45 0
-36 -42 0
-36 -40 0
-40 -42 0
-40 -45 0
-42 -45 0
-146 65 49 0
-147 52 0
-148 53 0
-149 46 0
-150 47 0
-151 51 0
-152 61 0
-153 55 67 54 0
-154 57 64 0
-155 58 59 69 0
-156 66 0
-157 60 0
-158 56 48 0
-159 68 0
-160 62 50 0
-161 63 0
-48 -67 0
-48 -51 0
-48 -50 0
-48 -49 0
-48 -64 0
-48 -59 0
-48 -65 0
-48 -56 0
-48 -62 0
-49 -64 0
-49 -59 0
-49 -50 0
-49 -51 0
-49 -67 0
-49 -56 0
-49 -65 0
-50 -64 0
-50 -55 0
-50 -54 0
-50 -67 0
-50 -62 0
-50 -59 0
-50 -65 0
-51 -69 0
-51 -64 0
-51 -59 0
-51 -57 0
-51 -58 0
-51 -67 0
-51 -62 0
-51 -65 0
-54 -55 0
-54 -67 0
-54 -62 0
-55 -67 0
-55 -62 0
-56 -65 0
-56 -64 0
-56 -59 0
-57 -69 0
-57 -67 0
-57 -59 0
-57 -58 0
-57 -64 0
-57 -62 0
-58 -64 0
-58 -69 0
-58 -59 0
-59 -69 0
-59 -64 0
-59 -67 0
-59 -62 0
-62 -67 0
-62 -65 0
-62 -64 0
-64 -69 0
-64 -67 0
-65 -67 0
-162 87 72 0
-163 78 0
-164 79 0
-165 70 0
-166 75 76 0
-167 84 0
-168 82 80 86 0
-169 83 0
-170 88 0
-171 89 0
-172 81 71 0
-173 77 0
-174 74 0
-175 85 73 0
-71 -80 0
-71 -77 0
-71 -76 0
-71 -73 0
-71 -72 0
-71 -86 0
-71 -74 0
-71 -87 0
-71 -81 0
-71 -75 0
-72 -86 0
-72 -74 0
-72 -80 0
-72 -73 0
-72 -76 0
-72 -81 0
-72 -87 0
-73 -86 0
-73 -85 0
-73 -74 0
-73 -87 0
-74 -80 0
-74 -77 0
-74 -76 0
-74 -85 0
-74 -81 0
-74 -75 0
-75 -87 0
-75 -86 0
-75 -80 0
-75 -77 0
-75 -76 0
-75 -82 0
-76 -77 0
-76 -86 0
-76 -80 0
-76 -82 0
-76 -87 0
-77 -80 0
-77 -87 0
-77 -82 0
-77 -86 0
-80 -86 0
-80 -82 0
-80 -87 0
-81 -87 0
-81 -86 0
-82 -86 0
-176 91 92 93 0
-177 94 90 0
-90 -92 0
-90 -94 0
-91 -93 0
-91 -92 0
-91 -94 0
-92 -93 0
-92 -94 0
-93 -94 0
95 0
96 0
97 0
98 0
99 0
100 0
101 0
102 0
103 0
104 0
105 0
106 0
107 0
108 0
177 0
176 0
w 69 0.526798
w -69 0.473202
w 41 0.526798
w -41 0.473202
w 36 0.526798
w -36 0.473202
w 148 0.526798
w -148 0.473202
w 145 0.526798
w -145 0.473202
w 50 0.526798
w -50 0.473202
w 17 0.526798
w -17 0.473202
w 164 0.526798
w -164 0.473202
w 45 0.526798
w -45 0.473202
w 121 0.526798
w -121 0.473202
w 78 0.526798
w -78 0.473202
w 52 0.526798
w -52 0.473202
w 116 0.526798
w -116 0.473202
w 88 0.526798
w -88 0.473202
w 112 0.526798
w -112 0.473202
w 9 1
w -9 1
w 42 1
w -42 1
w 18 1
w -18 1
w 158 1
w -158 1
w 151 1
w -151 1
w 170 1
w -170 1
w 144 1
w -144 1
w 65 1
w -65 1
w 7 1
w -7 1
w 59 1
w -59 1
w 99 1
w -99 1
w 96 1
w -96 1
w 63 1
w -63 1
w 138 1
w -138 1
w 115 1
w -115 1
w 122 1
w -122 1
w 33 1
w -33 1
w 118 1
w -118 1
w 141 1
w -141 1
w 54 1
w -54 1
w 103 1
w -103 1
w 23 1
w -23 1
w 67 1
w -67 1
w 119 1
w -119 1
w 177 1
w -177 1
w 130 1
w -130 1
w 22 1
w -22 1
w 129 1
w -129 1
w 168 1
w -168 1
w 62 1
w -62 1
w 169 1
w -169 1
w 74 1
w -74 1
w 64 1
w -64 1
w 125 1
w -125 1
w 83 1
w -83 1
w 139 1
w -139 1
w 24 1
w -24 1
w 104 1
w -104 1
w 167 1
w -167 1
w 111 1
w -111 1
w 107 1
w -107 1
w 124 1
w -124 1
w 39 1
w -39 1
w 162 1
w -162 1
w 113 1
w -113 1
w 140 1
w -140 1
w 166 1
w -166 1
w 32 1
w -32 1
w 175 1
w -175 1
w 13 1
w -13 1
w 84 1
w -84 1
w 110 1
w -110 1
w 29 1
w -29 1
w 133 1
w -133 1
w 81 1
w -81 1
w 48 1
w -48 1
w 37 1
w -37 1
w 77 1
w -77 1
w 53 1
w -53 1
w 156 1
w -156 1
w 137 1
w -137 1
w 108 1
w -108 1
w 85 1
w -85 1
w 91 1
w -91 1
w 28 1
w -28 1
w 47 1
w -47 1
w 57 1
w -57 1
w 6 1
w -6 1
w 43 1
w -43 1
w 173 1
w -173 1
w 10 1
w -10 1
w 126 1
w -126 1
w 90 1
w -90 1
w 80 1
w -80 1
w 143 1
w -143 1
w 21 1
w -21 1
w 127 1
w -127 1
w 58 1
w -58 1
w 3 1
w -3 1
w 12 1
w -12 1
w 147 1
w -147 1
w 128 1
w -128 1
w 40 1
w -40 1
w 11 1
w -11 1
w 97 1
w -97 1
w 86 1
w -86 1
w 31 1
w -31 1
w 117 1
w -117 1
w 72 1
w -72 1
w 114 1
w -114 1
w 131 1
w -131 1
w 2 1
w -2 1
w 70 1
w -70 1
w 19 1
w -19 1
w 132 1
w -132 1
w 176 1
w -176 1
w 109 1
w -109 1
w 163 1
w -163 1
w 27 1
w -27 1
w 134 1
w -134 1
w 92 1
w -92 1
w 4 1
w -4 1
w 123 1
w -123 1
w 49 1
w -49 1
w 55 1
w -55 1
w 159 1
w -159 1
w 38 1
w -38 1
w 135 1
w -135 1
w 160 1
w -160 1
w 94 1
w -94 1
w 71 1
w -71 1
w 30 1
w -30 1
w 101 1
w -101 1
w 161 1
w -161 1
w 102 1
w -102 1
w 44 1
w -44 1
w 46 1
w -46 1
w 68 1
w -68 1
w 79 1
w -79 1
w 25 1
w -25 1
w 171 1
w -171 1
w 98 1
w -98 1
w 154 1
w -154 1
w 51 1
w -51 1
w 16 1
w -16 1
w 14 1
w -14 1
w 76 1
w -76 1
w 120 1
w -120 1
w 93 1
w -93 1
w 100 1
w -100 1
w 149 1
w -149 1
w 89 1
w -89 1
w 153 1
w -153 1
w 73 1
w -73 1
w 34 1
w -34 1
w 150 1
w -150 1
w 1 1
w -1 1
w 95 1
w -95 1
w 174 1
w -174 1
w 61 1
w -61 1
w 146 1
w -146 1
w 15 1
w -15 1
w 66 1
w -66 1
w 20 1
w -20 1
w 56 1
w -56 1
w 5 1
w -5 1
w 75 1
w -75 1
w 152 1
w -152 1
w 155 1
w -155 1
w 136 1
w -136 1
w 87 1
w -87 1
w 8 1
w -8 1
w 165 1
w -165 1
w 106 1
w -106 1
w 26 1
w -26 1
w 60 1
w -60 1
w 172 1
w -172 1
w 35 1
w -35 1
w 142 1
w -142 1
w 157 1
w -157 1
w 82 1
w -82 1
w 105 1
w -105 1
